(set-info :category "industrial")
(set-info :status sat)
(declare-fun x00 () (_ BitVec 8))
(declare-fun x04 () (_ BitVec 8))
(declare-fun x05 () (_ BitVec 8))
(declare-fun x08 () (_ BitVec 8))
(declare-fun x10 () (_ BitVec 8))
(declare-fun x11 () (_ BitVec 8))
(declare-fun x12 () (_ BitVec 8))
(declare-fun x13 () (_ BitVec 8))
(declare-fun x14 () (_ BitVec 8))
(declare-fun x15 () (_ BitVec 8))
(declare-fun x16 () (_ BitVec 8))
(declare-fun x20 () (_ BitVec 8))
(declare-fun x21 () (_ BitVec 8))
(declare-fun x26 () (_ BitVec 8))
(declare-fun x27 () (_ BitVec 8))
(declare-fun x28 () (_ BitVec 8))
(declare-fun x30 () (_ BitVec 8))
(declare-fun x31 () (_ BitVec 8))
(declare-fun x33 () (_ BitVec 8))
(declare-fun x36 () (_ BitVec 8))
(declare-fun x38 () (_ BitVec 8))
(declare-fun x40 () (_ BitVec 8))
(declare-fun x41 () (_ BitVec 8))
(declare-fun x42 () (_ BitVec 8))
(declare-fun x43 () (_ BitVec 8))
(declare-fun x44 () (_ BitVec 8))
(declare-fun x47 () (_ BitVec 8))
(declare-fun x50 () (_ BitVec 8))
(declare-fun x52 () (_ BitVec 8))
(declare-fun x54 () (_ BitVec 8))
(declare-fun x55 () (_ BitVec 8))
(declare-fun x56 () (_ BitVec 8))
(declare-fun x58 () (_ BitVec 8))
(declare-fun x60 () (_ BitVec 8))
(declare-fun x63 () (_ BitVec 8))
(declare-fun x67 () (_ BitVec 8))
(declare-fun x68 () (_ BitVec 8))
(declare-fun x71 () (_ BitVec 8))
(declare-fun x73 () (_ BitVec 8))
(declare-fun x75 () (_ BitVec 8))
(declare-fun x77 () (_ BitVec 8))
(declare-fun x78 () (_ BitVec 8))
(declare-fun x80 () (_ BitVec 8))
(declare-fun x82 () (_ BitVec 8))
(declare-fun x84 () (_ BitVec 8))
(declare-fun x85 () (_ BitVec 8))
(declare-fun x87 () (_ BitVec 8))
(assert (bvult x00 (_ bv9 8)))
(assert (bvult x04 (_ bv9 8)))
(assert (bvult x05 (_ bv9 8)))
(assert (bvult x08 (_ bv9 8)))
(assert (bvult x10 (_ bv9 8)))
(assert (bvult x11 (_ bv9 8)))
(assert (bvult x12 (_ bv9 8)))
(assert (bvult x13 (_ bv9 8)))
(assert (bvult x14 (_ bv9 8)))
(assert (bvult x15 (_ bv9 8)))
(assert (bvult x16 (_ bv9 8)))
(assert (bvult x20 (_ bv9 8)))
(assert (bvult x21 (_ bv9 8)))
(assert (bvult x26 (_ bv9 8)))
(assert (bvult x27 (_ bv9 8)))
(assert (bvult x28 (_ bv9 8)))
(assert (bvult x30 (_ bv9 8)))
(assert (bvult x31 (_ bv9 8)))
(assert (bvult x33 (_ bv9 8)))
(assert (bvult x36 (_ bv9 8)))
(assert (bvult x38 (_ bv9 8)))
(assert (bvult x40 (_ bv9 8)))
(assert (bvult x41 (_ bv9 8)))
(assert (bvult x42 (_ bv9 8)))
(assert (bvult x43 (_ bv9 8)))
(assert (bvult x44 (_ bv9 8)))
(assert (bvult x47 (_ bv9 8)))
(assert (bvult x50 (_ bv9 8)))
(assert (bvult x52 (_ bv9 8)))
(assert (bvult x54 (_ bv9 8)))
(assert (bvult x55 (_ bv9 8)))
(assert (bvult x56 (_ bv9 8)))
(assert (bvult x58 (_ bv9 8)))
(assert (bvult x60 (_ bv9 8)))
(assert (bvult x63 (_ bv9 8)))
(assert (bvult x67 (_ bv9 8)))
(assert (bvult x68 (_ bv9 8)))
(assert (bvult x71 (_ bv9 8)))
(assert (bvult x73 (_ bv9 8)))
(assert (bvult x75 (_ bv9 8)))
(assert (bvult x77 (_ bv9 8)))
(assert (bvult x78 (_ bv9 8)))
(assert (bvult x80 (_ bv9 8)))
(assert (bvult x82 (_ bv9 8)))
(assert (bvult x84 (_ bv9 8)))
(assert (bvult x85 (_ bv9 8)))
(assert (bvult x87 (_ bv9 8)))
(assert (not (= x00 (_ bv8 8))))
(assert (not (= x00 (_ bv2 8))))
(assert (not (= x00 (_ bv4 8))))
(assert (not (= x00 x04)))
(assert (not (= x00 x05)))
(assert (not (= x00 (_ bv9 8))))
(assert (not (= x00 (_ bv1 8))))
(assert (not (= x00 x08)))
(assert (not (= (_ bv8 8) (_ bv2 8))))
(assert (not (= (_ bv8 8) (_ bv4 8))))
(assert (not (= (_ bv8 8) x04)))
(assert (not (= (_ bv8 8) x05)))
(assert (not (= (_ bv8 8) (_ bv9 8))))
(assert (not (= (_ bv8 8) (_ bv1 8))))
(assert (not (= (_ bv8 8) x08)))
(assert (not (= (_ bv2 8) (_ bv4 8))))
(assert (not (= (_ bv2 8) x04)))
(assert (not (= (_ bv2 8) x05)))
(assert (not (= (_ bv2 8) (_ bv9 8))))
(assert (not (= (_ bv2 8) (_ bv1 8))))
(assert (not (= (_ bv2 8) x08)))
(assert (not (= (_ bv4 8) x04)))
(assert (not (= (_ bv4 8) x05)))
(assert (not (= (_ bv4 8) (_ bv9 8))))
(assert (not (= (_ bv4 8) (_ bv1 8))))
(assert (not (= (_ bv4 8) x08)))
(assert (not (= x04 x05)))
(assert (not (= x04 (_ bv9 8))))
(assert (not (= x04 (_ bv1 8))))
(assert (not (= x04 x08)))
(assert (not (= x05 (_ bv9 8))))
(assert (not (= x05 (_ bv1 8))))
(assert (not (= x05 x08)))
(assert (not (= (_ bv9 8) (_ bv1 8))))
(assert (not (= (_ bv9 8) x08)))
(assert (not (= (_ bv1 8) x08)))
(assert (not (= x10 x11)))
(assert (not (= x10 x12)))
(assert (not (= x10 x13)))
(assert (not (= x10 x14)))
(assert (not (= x10 x15)))
(assert (not (= x10 x16)))
(assert (not (= x10 (_ bv6 8))))
(assert (not (= x10 (_ bv3 8))))
(assert (not (= x11 x12)))
(assert (not (= x11 x13)))
(assert (not (= x11 x14)))
(assert (not (= x11 x15)))
(assert (not (= x11 x16)))
(assert (not (= x11 (_ bv6 8))))
(assert (not (= x11 (_ bv3 8))))
(assert (not (= x12 x13)))
(assert (not (= x12 x14)))
(assert (not (= x12 x15)))
(assert (not (= x12 x16)))
(assert (not (= x12 (_ bv6 8))))
(assert (not (= x12 (_ bv3 8))))
(assert (not (= x13 x14)))
(assert (not (= x13 x15)))
(assert (not (= x13 x16)))
(assert (not (= x13 (_ bv6 8))))
(assert (not (= x13 (_ bv3 8))))
(assert (not (= x14 x15)))
(assert (not (= x14 x16)))
(assert (not (= x14 (_ bv6 8))))
(assert (not (= x14 (_ bv3 8))))
(assert (not (= x15 x16)))
(assert (not (= x15 (_ bv6 8))))
(assert (not (= x15 (_ bv3 8))))
(assert (not (= x16 (_ bv6 8))))
(assert (not (= x16 (_ bv3 8))))
(assert (not (= (_ bv6 8) (_ bv3 8))))
(assert (not (= x20 x21)))
(assert (not (= x20 (_ bv4 8))))
(assert (not (= x20 (_ bv1 8))))
(assert (not (= x20 (_ bv7 8))))
(assert (not (= x20 (_ bv3 8))))
(assert (not (= x20 x26)))
(assert (not (= x20 x27)))
(assert (not (= x20 x28)))
(assert (not (= x21 (_ bv4 8))))
(assert (not (= x21 (_ bv1 8))))
(assert (not (= x21 (_ bv7 8))))
(assert (not (= x21 (_ bv3 8))))
(assert (not (= x21 x26)))
(assert (not (= x21 x27)))
(assert (not (= x21 x28)))
(assert (not (= (_ bv4 8) (_ bv1 8))))
(assert (not (= (_ bv4 8) (_ bv7 8))))
(assert (not (= (_ bv4 8) (_ bv3 8))))
(assert (not (= (_ bv4 8) x26)))
(assert (not (= (_ bv4 8) x27)))
(assert (not (= (_ bv4 8) x28)))
(assert (not (= (_ bv1 8) (_ bv7 8))))
(assert (not (= (_ bv1 8) (_ bv3 8))))
(assert (not (= (_ bv1 8) x26)))
(assert (not (= (_ bv1 8) x27)))
(assert (not (= (_ bv1 8) x28)))
(assert (not (= (_ bv7 8) (_ bv3 8))))
(assert (not (= (_ bv7 8) x26)))
(assert (not (= (_ bv7 8) x27)))
(assert (not (= (_ bv7 8) x28)))
(assert (not (= (_ bv3 8) x26)))
(assert (not (= (_ bv3 8) x27)))
(assert (not (= (_ bv3 8) x28)))
(assert (not (= x26 x27)))
(assert (not (= x26 x28)))
(assert (not (= x27 x28)))
(assert (not (= x30 x31)))
(assert (not (= x30 (_ bv8 8))))
(assert (not (= x30 x33)))
(assert (not (= x30 (_ bv2 8))))
(assert (not (= x30 (_ bv5 8))))
(assert (not (= x30 x36)))
(assert (not (= x30 (_ bv9 8))))
(assert (not (= x30 x38)))
(assert (not (= x31 (_ bv8 8))))
(assert (not (= x31 x33)))
(assert (not (= x31 (_ bv2 8))))
(assert (not (= x31 (_ bv5 8))))
(assert (not (= x31 x36)))
(assert (not (= x31 (_ bv9 8))))
(assert (not (= x31 x38)))
(assert (not (= (_ bv8 8) x33)))
(assert (not (= (_ bv8 8) (_ bv2 8))))
(assert (not (= (_ bv8 8) (_ bv5 8))))
(assert (not (= (_ bv8 8) x36)))
(assert (not (= (_ bv8 8) (_ bv9 8))))
(assert (not (= (_ bv8 8) x38)))
(assert (not (= x33 (_ bv2 8))))
(assert (not (= x33 (_ bv5 8))))
(assert (not (= x33 x36)))
(assert (not (= x33 (_ bv9 8))))
(assert (not (= x33 x38)))
(assert (not (= (_ bv2 8) (_ bv5 8))))
(assert (not (= (_ bv2 8) x36)))
(assert (not (= (_ bv2 8) (_ bv9 8))))
(assert (not (= (_ bv2 8) x38)))
(assert (not (= (_ bv5 8) x36)))
(assert (not (= (_ bv5 8) (_ bv9 8))))
(assert (not (= (_ bv5 8) x38)))
(assert (not (= x36 (_ bv9 8))))
(assert (not (= x36 x38)))
(assert (not (= (_ bv9 8) x38)))
(assert (not (= x40 x41)))
(assert (not (= x40 x42)))
(assert (not (= x40 x43)))
(assert (not (= x40 x44)))
(assert (not (= x40 (_ bv8 8))))
(assert (not (= x40 (_ bv6 8))))
(assert (not (= x40 x47)))
(assert (not (= x40 (_ bv5 8))))
(assert (not (= x41 x42)))
(assert (not (= x41 x43)))
(assert (not (= x41 x44)))
(assert (not (= x41 (_ bv8 8))))
(assert (not (= x41 (_ bv6 8))))
(assert (not (= x41 x47)))
(assert (not (= x41 (_ bv5 8))))
(assert (not (= x42 x43)))
(assert (not (= x42 x44)))
(assert (not (= x42 (_ bv8 8))))
(assert (not (= x42 (_ bv6 8))))
(assert (not (= x42 x47)))
(assert (not (= x42 (_ bv5 8))))
(assert (not (= x43 x44)))
(assert (not (= x43 (_ bv8 8))))
(assert (not (= x43 (_ bv6 8))))
(assert (not (= x43 x47)))
(assert (not (= x43 (_ bv5 8))))
(assert (not (= x44 (_ bv8 8))))
(assert (not (= x44 (_ bv6 8))))
(assert (not (= x44 x47)))
(assert (not (= x44 (_ bv5 8))))
(assert (not (= (_ bv8 8) (_ bv6 8))))
(assert (not (= (_ bv8 8) x47)))
(assert (not (= (_ bv8 8) (_ bv5 8))))
(assert (not (= (_ bv6 8) x47)))
(assert (not (= (_ bv6 8) (_ bv5 8))))
(assert (not (= x47 (_ bv5 8))))
(assert (not (= x50 (_ bv6 8))))
(assert (not (= x50 x52)))
(assert (not (= x50 (_ bv3 8))))
(assert (not (= x50 x54)))
(assert (not (= x50 x55)))
(assert (not (= x50 x56)))
(assert (not (= x50 (_ bv4 8))))
(assert (not (= x50 x58)))
(assert (not (= (_ bv6 8) x52)))
(assert (not (= (_ bv6 8) (_ bv3 8))))
(assert (not (= (_ bv6 8) x54)))
(assert (not (= (_ bv6 8) x55)))
(assert (not (= (_ bv6 8) x56)))
(assert (not (= (_ bv6 8) (_ bv4 8))))
(assert (not (= (_ bv6 8) x58)))
(assert (not (= x52 (_ bv3 8))))
(assert (not (= x52 x54)))
(assert (not (= x52 x55)))
(assert (not (= x52 x56)))
(assert (not (= x52 (_ bv4 8))))
(assert (not (= x52 x58)))
(assert (not (= (_ bv3 8) x54)))
(assert (not (= (_ bv3 8) x55)))
(assert (not (= (_ bv3 8) x56)))
(assert (not (= (_ bv3 8) (_ bv4 8))))
(assert (not (= (_ bv3 8) x58)))
(assert (not (= x54 x55)))
(assert (not (= x54 x56)))
(assert (not (= x54 (_ bv4 8))))
(assert (not (= x54 x58)))
(assert (not (= x55 x56)))
(assert (not (= x55 (_ bv4 8))))
(assert (not (= x55 x58)))
(assert (not (= x56 (_ bv4 8))))
(assert (not (= x56 x58)))
(assert (not (= (_ bv4 8) x58)))
(assert (not (= x60 (_ bv2 8))))
(assert (not (= x60 (_ bv5 8))))
(assert (not (= x60 x63)))
(assert (not (= x60 (_ bv6 8))))
(assert (not (= x60 (_ bv4 8))))
(assert (not (= x60 (_ bv1 8))))
(assert (not (= x60 x67)))
(assert (not (= x60 x68)))
(assert (not (= (_ bv2 8) (_ bv5 8))))
(assert (not (= (_ bv2 8) x63)))
(assert (not (= (_ bv2 8) (_ bv6 8))))
(assert (not (= (_ bv2 8) (_ bv4 8))))
(assert (not (= (_ bv2 8) (_ bv1 8))))
(assert (not (= (_ bv2 8) x67)))
(assert (not (= (_ bv2 8) x68)))
(assert (not (= (_ bv5 8) x63)))
(assert (not (= (_ bv5 8) (_ bv6 8))))
(assert (not (= (_ bv5 8) (_ bv4 8))))
(assert (not (= (_ bv5 8) (_ bv1 8))))
(assert (not (= (_ bv5 8) x67)))
(assert (not (= (_ bv5 8) x68)))
(assert (not (= x63 (_ bv6 8))))
(assert (not (= x63 (_ bv4 8))))
(assert (not (= x63 (_ bv1 8))))
(assert (not (= x63 x67)))
(assert (not (= x63 x68)))
(assert (not (= (_ bv6 8) (_ bv4 8))))
(assert (not (= (_ bv6 8) (_ bv1 8))))
(assert (not (= (_ bv6 8) x67)))
(assert (not (= (_ bv6 8) x68)))
(assert (not (= (_ bv4 8) (_ bv1 8))))
(assert (not (= (_ bv4 8) x67)))
(assert (not (= (_ bv4 8) x68)))
(assert (not (= (_ bv1 8) x67)))
(assert (not (= (_ bv1 8) x68)))
(assert (not (= x67 x68)))
(assert (not (= (_ bv7 8) x71)))
(assert (not (= (_ bv7 8) (_ bv3 8))))
(assert (not (= (_ bv7 8) x73)))
(assert (not (= (_ bv7 8) (_ bv9 8))))
(assert (not (= (_ bv7 8) x75)))
(assert (not (= (_ bv7 8) (_ bv2 8))))
(assert (not (= (_ bv7 8) x77)))
(assert (not (= (_ bv7 8) x78)))
(assert (not (= x71 (_ bv3 8))))
(assert (not (= x71 x73)))
(assert (not (= x71 (_ bv9 8))))
(assert (not (= x71 x75)))
(assert (not (= x71 (_ bv2 8))))
(assert (not (= x71 x77)))
(assert (not (= x71 x78)))
(assert (not (= (_ bv3 8) x73)))
(assert (not (= (_ bv3 8) (_ bv9 8))))
(assert (not (= (_ bv3 8) x75)))
(assert (not (= (_ bv3 8) (_ bv2 8))))
(assert (not (= (_ bv3 8) x77)))
(assert (not (= (_ bv3 8) x78)))
(assert (not (= x73 (_ bv9 8))))
(assert (not (= x73 x75)))
(assert (not (= x73 (_ bv2 8))))
(assert (not (= x73 x77)))
(assert (not (= x73 x78)))
(assert (not (= (_ bv9 8) x75)))
(assert (not (= (_ bv9 8) (_ bv2 8))))
(assert (not (= (_ bv9 8) x77)))
(assert (not (= (_ bv9 8) x78)))
(assert (not (= x75 (_ bv2 8))))
(assert (not (= x75 x77)))
(assert (not (= x75 x78)))
(assert (not (= (_ bv2 8) x77)))
(assert (not (= (_ bv2 8) x78)))
(assert (not (= x77 x78)))
(assert (not (= x80 (_ bv1 8))))
(assert (not (= x80 x82)))
(assert (not (= x80 (_ bv8 8))))
(assert (not (= x80 x84)))
(assert (not (= x80 x85)))
(assert (not (= x80 (_ bv7 8))))
(assert (not (= x80 x87)))
(assert (not (= x80 (_ bv4 8))))
(assert (not (= (_ bv1 8) x82)))
(assert (not (= (_ bv1 8) (_ bv8 8))))
(assert (not (= (_ bv1 8) x84)))
(assert (not (= (_ bv1 8) x85)))
(assert (not (= (_ bv1 8) (_ bv7 8))))
(assert (not (= (_ bv1 8) x87)))
(assert (not (= (_ bv1 8) (_ bv4 8))))
(assert (not (= x82 (_ bv8 8))))
(assert (not (= x82 x84)))
(assert (not (= x82 x85)))
(assert (not (= x82 (_ bv7 8))))
(assert (not (= x82 x87)))
(assert (not (= x82 (_ bv4 8))))
(assert (not (= (_ bv8 8) x84)))
(assert (not (= (_ bv8 8) x85)))
(assert (not (= (_ bv8 8) (_ bv7 8))))
(assert (not (= (_ bv8 8) x87)))
(assert (not (= (_ bv8 8) (_ bv4 8))))
(assert (not (= x84 x85)))
(assert (not (= x84 (_ bv7 8))))
(assert (not (= x84 x87)))
(assert (not (= x84 (_ bv4 8))))
(assert (not (= x85 (_ bv7 8))))
(assert (not (= x85 x87)))
(assert (not (= x85 (_ bv4 8))))
(assert (not (= (_ bv7 8) x87)))
(assert (not (= (_ bv7 8) (_ bv4 8))))
(assert (not (= x87 (_ bv4 8))))
(assert (not (= x00 x10)))
(assert (not (= x00 x20)))
(assert (not (= x00 x30)))
(assert (not (= x00 x40)))
(assert (not (= x00 x50)))
(assert (not (= x00 x60)))
(assert (not (= x00 (_ bv7 8))))
(assert (not (= x00 x80)))
(assert (not (= x10 x20)))
(assert (not (= x10 x30)))
(assert (not (= x10 x40)))
(assert (not (= x10 x50)))
(assert (not (= x10 x60)))
(assert (not (= x10 (_ bv7 8))))
(assert (not (= x10 x80)))
(assert (not (= x20 x30)))
(assert (not (= x20 x40)))
(assert (not (= x20 x50)))
(assert (not (= x20 x60)))
(assert (not (= x20 (_ bv7 8))))
(assert (not (= x20 x80)))
(assert (not (= x30 x40)))
(assert (not (= x30 x50)))
(assert (not (= x30 x60)))
(assert (not (= x30 (_ bv7 8))))
(assert (not (= x30 x80)))
(assert (not (= x40 x50)))
(assert (not (= x40 x60)))
(assert (not (= x40 (_ bv7 8))))
(assert (not (= x40 x80)))
(assert (not (= x50 x60)))
(assert (not (= x50 (_ bv7 8))))
(assert (not (= x50 x80)))
(assert (not (= x60 (_ bv7 8))))
(assert (not (= x60 x80)))
(assert (not (= (_ bv7 8) x80)))
(assert (not (= (_ bv8 8) x11)))
(assert (not (= (_ bv8 8) x21)))
(assert (not (= (_ bv8 8) x31)))
(assert (not (= (_ bv8 8) x41)))
(assert (not (= (_ bv8 8) (_ bv6 8))))
(assert (not (= (_ bv8 8) (_ bv2 8))))
(assert (not (= (_ bv8 8) x71)))
(assert (not (= (_ bv8 8) (_ bv1 8))))
(assert (not (= x11 x21)))
(assert (not (= x11 x31)))
(assert (not (= x11 x41)))
(assert (not (= x11 (_ bv6 8))))
(assert (not (= x11 (_ bv2 8))))
(assert (not (= x11 x71)))
(assert (not (= x11 (_ bv1 8))))
(assert (not (= x21 x31)))
(assert (not (= x21 x41)))
(assert (not (= x21 (_ bv6 8))))
(assert (not (= x21 (_ bv2 8))))
(assert (not (= x21 x71)))
(assert (not (= x21 (_ bv1 8))))
(assert (not (= x31 x41)))
(assert (not (= x31 (_ bv6 8))))
(assert (not (= x31 (_ bv2 8))))
(assert (not (= x31 x71)))
(assert (not (= x31 (_ bv1 8))))
(assert (not (= x41 (_ bv6 8))))
(assert (not (= x41 (_ bv2 8))))
(assert (not (= x41 x71)))
(assert (not (= x41 (_ bv1 8))))
(assert (not (= (_ bv6 8) (_ bv2 8))))
(assert (not (= (_ bv6 8) x71)))
(assert (not (= (_ bv6 8) (_ bv1 8))))
(assert (not (= (_ bv2 8) x71)))
(assert (not (= (_ bv2 8) (_ bv1 8))))
(assert (not (= x71 (_ bv1 8))))
(assert (not (= (_ bv2 8) x12)))
(assert (not (= (_ bv2 8) (_ bv4 8))))
(assert (not (= (_ bv2 8) (_ bv8 8))))
(assert (not (= (_ bv2 8) x42)))
(assert (not (= (_ bv2 8) x52)))
(assert (not (= (_ bv2 8) (_ bv5 8))))
(assert (not (= (_ bv2 8) (_ bv3 8))))
(assert (not (= (_ bv2 8) x82)))
(assert (not (= x12 (_ bv4 8))))
(assert (not (= x12 (_ bv8 8))))
(assert (not (= x12 x42)))
(assert (not (= x12 x52)))
(assert (not (= x12 (_ bv5 8))))
(assert (not (= x12 (_ bv3 8))))
(assert (not (= x12 x82)))
(assert (not (= (_ bv4 8) (_ bv8 8))))
(assert (not (= (_ bv4 8) x42)))
(assert (not (= (_ bv4 8) x52)))
(assert (not (= (_ bv4 8) (_ bv5 8))))
(assert (not (= (_ bv4 8) (_ bv3 8))))
(assert (not (= (_ bv4 8) x82)))
(assert (not (= (_ bv8 8) x42)))
(assert (not (= (_ bv8 8) x52)))
(assert (not (= (_ bv8 8) (_ bv5 8))))
(assert (not (= (_ bv8 8) (_ bv3 8))))
(assert (not (= (_ bv8 8) x82)))
(assert (not (= x42 x52)))
(assert (not (= x42 (_ bv5 8))))
(assert (not (= x42 (_ bv3 8))))
(assert (not (= x42 x82)))
(assert (not (= x52 (_ bv5 8))))
(assert (not (= x52 (_ bv3 8))))
(assert (not (= x52 x82)))
(assert (not (= (_ bv5 8) (_ bv3 8))))
(assert (not (= (_ bv5 8) x82)))
(assert (not (= (_ bv3 8) x82)))
(assert (not (= (_ bv4 8) x13)))
(assert (not (= (_ bv4 8) (_ bv1 8))))
(assert (not (= (_ bv4 8) x33)))
(assert (not (= (_ bv4 8) x43)))
(assert (not (= (_ bv4 8) (_ bv3 8))))
(assert (not (= (_ bv4 8) x63)))
(assert (not (= (_ bv4 8) x73)))
(assert (not (= (_ bv4 8) (_ bv8 8))))
(assert (not (= x13 (_ bv1 8))))
(assert (not (= x13 x33)))
(assert (not (= x13 x43)))
(assert (not (= x13 (_ bv3 8))))
(assert (not (= x13 x63)))
(assert (not (= x13 x73)))
(assert (not (= x13 (_ bv8 8))))
(assert (not (= (_ bv1 8) x33)))
(assert (not (= (_ bv1 8) x43)))
(assert (not (= (_ bv1 8) (_ bv3 8))))
(assert (not (= (_ bv1 8) x63)))
(assert (not (= (_ bv1 8) x73)))
(assert (not (= (_ bv1 8) (_ bv8 8))))
(assert (not (= x33 x43)))
(assert (not (= x33 (_ bv3 8))))
(assert (not (= x33 x63)))
(assert (not (= x33 x73)))
(assert (not (= x33 (_ bv8 8))))
(assert (not (= x43 (_ bv3 8))))
(assert (not (= x43 x63)))
(assert (not (= x43 x73)))
(assert (not (= x43 (_ bv8 8))))
(assert (not (= (_ bv3 8) x63)))
(assert (not (= (_ bv3 8) x73)))
(assert (not (= (_ bv3 8) (_ bv8 8))))
(assert (not (= x63 x73)))
(assert (not (= x63 (_ bv8 8))))
(assert (not (= x73 (_ bv8 8))))
(assert (not (= x04 x14)))
(assert (not (= x04 (_ bv7 8))))
(assert (not (= x04 (_ bv2 8))))
(assert (not (= x04 x44)))
(assert (not (= x04 x54)))
(assert (not (= x04 (_ bv6 8))))
(assert (not (= x04 (_ bv9 8))))
(assert (not (= x04 x84)))
(assert (not (= x14 (_ bv7 8))))
(assert (not (= x14 (_ bv2 8))))
(assert (not (= x14 x44)))
(assert (not (= x14 x54)))
(assert (not (= x14 (_ bv6 8))))
(assert (not (= x14 (_ bv9 8))))
(assert (not (= x14 x84)))
(assert (not (= (_ bv7 8) (_ bv2 8))))
(assert (not (= (_ bv7 8) x44)))
(assert (not (= (_ bv7 8) x54)))
(assert (not (= (_ bv7 8) (_ bv6 8))))
(assert (not (= (_ bv7 8) (_ bv9 8))))
(assert (not (= (_ bv7 8) x84)))
(assert (not (= (_ bv2 8) x44)))
(assert (not (= (_ bv2 8) x54)))
(assert (not (= (_ bv2 8) (_ bv6 8))))
(assert (not (= (_ bv2 8) (_ bv9 8))))
(assert (not (= (_ bv2 8) x84)))
(assert (not (= x44 x54)))
(assert (not (= x44 (_ bv6 8))))
(assert (not (= x44 (_ bv9 8))))
(assert (not (= x44 x84)))
(assert (not (= x54 (_ bv6 8))))
(assert (not (= x54 (_ bv9 8))))
(assert (not (= x54 x84)))
(assert (not (= (_ bv6 8) (_ bv9 8))))
(assert (not (= (_ bv6 8) x84)))
(assert (not (= (_ bv9 8) x84)))
(assert (not (= x05 x15)))
(assert (not (= x05 (_ bv3 8))))
(assert (not (= x05 (_ bv5 8))))
(assert (not (= x05 (_ bv8 8))))
(assert (not (= x05 x55)))
(assert (not (= x05 (_ bv4 8))))
(assert (not (= x05 x75)))
(assert (not (= x05 x85)))
(assert (not (= x15 (_ bv3 8))))
(assert (not (= x15 (_ bv5 8))))
(assert (not (= x15 (_ bv8 8))))
(assert (not (= x15 x55)))
(assert (not (= x15 (_ bv4 8))))
(assert (not (= x15 x75)))
(assert (not (= x15 x85)))
(assert (not (= (_ bv3 8) (_ bv5 8))))
(assert (not (= (_ bv3 8) (_ bv8 8))))
(assert (not (= (_ bv3 8) x55)))
(assert (not (= (_ bv3 8) (_ bv4 8))))
(assert (not (= (_ bv3 8) x75)))
(assert (not (= (_ bv3 8) x85)))
(assert (not (= (_ bv5 8) (_ bv8 8))))
(assert (not (= (_ bv5 8) x55)))
(assert (not (= (_ bv5 8) (_ bv4 8))))
(assert (not (= (_ bv5 8) x75)))
(assert (not (= (_ bv5 8) x85)))
(assert (not (= (_ bv8 8) x55)))
(assert (not (= (_ bv8 8) (_ bv4 8))))
(assert (not (= (_ bv8 8) x75)))
(assert (not (= (_ bv8 8) x85)))
(assert (not (= x55 (_ bv4 8))))
(assert (not (= x55 x75)))
(assert (not (= x55 x85)))
(assert (not (= (_ bv4 8) x75)))
(assert (not (= (_ bv4 8) x85)))
(assert (not (= x75 x85)))
(assert (not (= (_ bv9 8) x16)))
(assert (not (= (_ bv9 8) x26)))
(assert (not (= (_ bv9 8) x36)))
(assert (not (= (_ bv9 8) (_ bv6 8))))
(assert (not (= (_ bv9 8) x56)))
(assert (not (= (_ bv9 8) (_ bv1 8))))
(assert (not (= (_ bv9 8) (_ bv2 8))))
(assert (not (= (_ bv9 8) (_ bv7 8))))
(assert (not (= x16 x26)))
(assert (not (= x16 x36)))
(assert (not (= x16 (_ bv6 8))))
(assert (not (= x16 x56)))
(assert (not (= x16 (_ bv1 8))))
(assert (not (= x16 (_ bv2 8))))
(assert (not (= x16 (_ bv7 8))))
(assert (not (= x26 x36)))
(assert (not (= x26 (_ bv6 8))))
(assert (not (= x26 x56)))
(assert (not (= x26 (_ bv1 8))))
(assert (not (= x26 (_ bv2 8))))
(assert (not (= x26 (_ bv7 8))))
(assert (not (= x36 (_ bv6 8))))
(assert (not (= x36 x56)))
(assert (not (= x36 (_ bv1 8))))
(assert (not (= x36 (_ bv2 8))))
(assert (not (= x36 (_ bv7 8))))
(assert (not (= (_ bv6 8) x56)))
(assert (not (= (_ bv6 8) (_ bv1 8))))
(assert (not (= (_ bv6 8) (_ bv2 8))))
(assert (not (= (_ bv6 8) (_ bv7 8))))
(assert (not (= x56 (_ bv1 8))))
(assert (not (= x56 (_ bv2 8))))
(assert (not (= x56 (_ bv7 8))))
(assert (not (= (_ bv1 8) (_ bv2 8))))
(assert (not (= (_ bv1 8) (_ bv7 8))))
(assert (not (= (_ bv2 8) (_ bv7 8))))
(assert (not (= (_ bv1 8) (_ bv6 8))))
(assert (not (= (_ bv1 8) x27)))
(assert (not (= (_ bv1 8) (_ bv9 8))))
(assert (not (= (_ bv1 8) x47)))
(assert (not (= (_ bv1 8) (_ bv4 8))))
(assert (not (= (_ bv1 8) x67)))
(assert (not (= (_ bv1 8) x77)))
(assert (not (= (_ bv1 8) x87)))
(assert (not (= (_ bv6 8) x27)))
(assert (not (= (_ bv6 8) (_ bv9 8))))
(assert (not (= (_ bv6 8) x47)))
(assert (not (= (_ bv6 8) (_ bv4 8))))
(assert (not (= (_ bv6 8) x67)))
(assert (not (= (_ bv6 8) x77)))
(assert (not (= (_ bv6 8) x87)))
(assert (not (= x27 (_ bv9 8))))
(assert (not (= x27 x47)))
(assert (not (= x27 (_ bv4 8))))
(assert (not (= x27 x67)))
(assert (not (= x27 x77)))
(assert (not (= x27 x87)))
(assert (not (= (_ bv9 8) x47)))
(assert (not (= (_ bv9 8) (_ bv4 8))))
(assert (not (= (_ bv9 8) x67)))
(assert (not (= (_ bv9 8) x77)))
(assert (not (= (_ bv9 8) x87)))
(assert (not (= x47 (_ bv4 8))))
(assert (not (= x47 x67)))
(assert (not (= x47 x77)))
(assert (not (= x47 x87)))
(assert (not (= (_ bv4 8) x67)))
(assert (not (= (_ bv4 8) x77)))
(assert (not (= (_ bv4 8) x87)))
(assert (not (= x67 x77)))
(assert (not (= x67 x87)))
(assert (not (= x77 x87)))
(assert (not (= x08 (_ bv3 8))))
(assert (not (= x08 x28)))
(assert (not (= x08 x38)))
(assert (not (= x08 (_ bv5 8))))
(assert (not (= x08 x58)))
(assert (not (= x08 x68)))
(assert (not (= x08 x78)))
(assert (not (= x08 (_ bv4 8))))
(assert (not (= (_ bv3 8) x28)))
(assert (not (= (_ bv3 8) x38)))
(assert (not (= (_ bv3 8) (_ bv5 8))))
(assert (not (= (_ bv3 8) x58)))
(assert (not (= (_ bv3 8) x68)))
(assert (not (= (_ bv3 8) x78)))
(assert (not (= (_ bv3 8) (_ bv4 8))))
(assert (not (= x28 x38)))
(assert (not (= x28 (_ bv5 8))))
(assert (not (= x28 x58)))
(assert (not (= x28 x68)))
(assert (not (= x28 x78)))
(assert (not (= x28 (_ bv4 8))))
(assert (not (= x38 (_ bv5 8))))
(assert (not (= x38 x58)))
(assert (not (= x38 x68)))
(assert (not (= x38 x78)))
(assert (not (= x38 (_ bv4 8))))
(assert (not (= (_ bv5 8) x58)))
(assert (not (= (_ bv5 8) x68)))
(assert (not (= (_ bv5 8) x78)))
(assert (not (= (_ bv5 8) (_ bv4 8))))
(assert (not (= x58 x68)))
(assert (not (= x58 x78)))
(assert (not (= x58 (_ bv4 8))))
(assert (not (= x68 x78)))
(assert (not (= x68 (_ bv4 8))))
(assert (not (= x78 (_ bv4 8))))
(assert (not (= x00 (_ bv8 8))))
(assert (not (= x00 (_ bv2 8))))
(assert (not (= x00 x10)))
(assert (not (= x00 x11)))
(assert (not (= x00 x12)))
(assert (not (= x00 x20)))
(assert (not (= x00 x21)))
(assert (not (= x00 (_ bv4 8))))
(assert (not (= (_ bv8 8) (_ bv2 8))))
(assert (not (= (_ bv8 8) x10)))
(assert (not (= (_ bv8 8) x11)))
(assert (not (= (_ bv8 8) x12)))
(assert (not (= (_ bv8 8) x20)))
(assert (not (= (_ bv8 8) x21)))
(assert (not (= (_ bv8 8) (_ bv4 8))))
(assert (not (= (_ bv2 8) x10)))
(assert (not (= (_ bv2 8) x11)))
(assert (not (= (_ bv2 8) x12)))
(assert (not (= (_ bv2 8) x20)))
(assert (not (= (_ bv2 8) x21)))
(assert (not (= (_ bv2 8) (_ bv4 8))))
(assert (not (= x10 x11)))
(assert (not (= x10 x12)))
(assert (not (= x10 x20)))
(assert (not (= x10 x21)))
(assert (not (= x10 (_ bv4 8))))
(assert (not (= x11 x12)))
(assert (not (= x11 x20)))
(assert (not (= x11 x21)))
(assert (not (= x11 (_ bv4 8))))
(assert (not (= x12 x20)))
(assert (not (= x12 x21)))
(assert (not (= x12 (_ bv4 8))))
(assert (not (= x20 x21)))
(assert (not (= x20 (_ bv4 8))))
(assert (not (= x21 (_ bv4 8))))
(assert (not (= (_ bv4 8) x04)))
(assert (not (= (_ bv4 8) x05)))
(assert (not (= (_ bv4 8) x13)))
(assert (not (= (_ bv4 8) x14)))
(assert (not (= (_ bv4 8) x15)))
(assert (not (= (_ bv4 8) (_ bv1 8))))
(assert (not (= (_ bv4 8) (_ bv7 8))))
(assert (not (= (_ bv4 8) (_ bv3 8))))
(assert (not (= x04 x05)))
(assert (not (= x04 x13)))
(assert (not (= x04 x14)))
(assert (not (= x04 x15)))
(assert (not (= x04 (_ bv1 8))))
(assert (not (= x04 (_ bv7 8))))
(assert (not (= x04 (_ bv3 8))))
(assert (not (= x05 x13)))
(assert (not (= x05 x14)))
(assert (not (= x05 x15)))
(assert (not (= x05 (_ bv1 8))))
(assert (not (= x05 (_ bv7 8))))
(assert (not (= x05 (_ bv3 8))))
(assert (not (= x13 x14)))
(assert (not (= x13 x15)))
(assert (not (= x13 (_ bv1 8))))
(assert (not (= x13 (_ bv7 8))))
(assert (not (= x13 (_ bv3 8))))
(assert (not (= x14 x15)))
(assert (not (= x14 (_ bv1 8))))
(assert (not (= x14 (_ bv7 8))))
(assert (not (= x14 (_ bv3 8))))
(assert (not (= x15 (_ bv1 8))))
(assert (not (= x15 (_ bv7 8))))
(assert (not (= x15 (_ bv3 8))))
(assert (not (= (_ bv1 8) (_ bv7 8))))
(assert (not (= (_ bv1 8) (_ bv3 8))))
(assert (not (= (_ bv7 8) (_ bv3 8))))
(assert (not (= (_ bv9 8) (_ bv1 8))))
(assert (not (= (_ bv9 8) x08)))
(assert (not (= (_ bv9 8) x16)))
(assert (not (= (_ bv9 8) (_ bv6 8))))
(assert (not (= (_ bv9 8) (_ bv3 8))))
(assert (not (= (_ bv9 8) x26)))
(assert (not (= (_ bv9 8) x27)))
(assert (not (= (_ bv9 8) x28)))
(assert (not (= (_ bv1 8) x08)))
(assert (not (= (_ bv1 8) x16)))
(assert (not (= (_ bv1 8) (_ bv6 8))))
(assert (not (= (_ bv1 8) (_ bv3 8))))
(assert (not (= (_ bv1 8) x26)))
(assert (not (= (_ bv1 8) x27)))
(assert (not (= (_ bv1 8) x28)))
(assert (not (= x08 x16)))
(assert (not (= x08 (_ bv6 8))))
(assert (not (= x08 (_ bv3 8))))
(assert (not (= x08 x26)))
(assert (not (= x08 x27)))
(assert (not (= x08 x28)))
(assert (not (= x16 (_ bv6 8))))
(assert (not (= x16 (_ bv3 8))))
(assert (not (= x16 x26)))
(assert (not (= x16 x27)))
(assert (not (= x16 x28)))
(assert (not (= (_ bv6 8) (_ bv3 8))))
(assert (not (= (_ bv6 8) x26)))
(assert (not (= (_ bv6 8) x27)))
(assert (not (= (_ bv6 8) x28)))
(assert (not (= (_ bv3 8) x26)))
(assert (not (= (_ bv3 8) x27)))
(assert (not (= (_ bv3 8) x28)))
(assert (not (= x26 x27)))
(assert (not (= x26 x28)))
(assert (not (= x27 x28)))
(assert (not (= x30 x31)))
(assert (not (= x30 (_ bv8 8))))
(assert (not (= x30 x40)))
(assert (not (= x30 x41)))
(assert (not (= x30 x42)))
(assert (not (= x30 x50)))
(assert (not (= x30 (_ bv6 8))))
(assert (not (= x30 x52)))
(assert (not (= x31 (_ bv8 8))))
(assert (not (= x31 x40)))
(assert (not (= x31 x41)))
(assert (not (= x31 x42)))
(assert (not (= x31 x50)))
(assert (not (= x31 (_ bv6 8))))
(assert (not (= x31 x52)))
(assert (not (= (_ bv8 8) x40)))
(assert (not (= (_ bv8 8) x41)))
(assert (not (= (_ bv8 8) x42)))
(assert (not (= (_ bv8 8) x50)))
(assert (not (= (_ bv8 8) (_ bv6 8))))
(assert (not (= (_ bv8 8) x52)))
(assert (not (= x40 x41)))
(assert (not (= x40 x42)))
(assert (not (= x40 x50)))
(assert (not (= x40 (_ bv6 8))))
(assert (not (= x40 x52)))
(assert (not (= x41 x42)))
(assert (not (= x41 x50)))
(assert (not (= x41 (_ bv6 8))))
(assert (not (= x41 x52)))
(assert (not (= x42 x50)))
(assert (not (= x42 (_ bv6 8))))
(assert (not (= x42 x52)))
(assert (not (= x50 (_ bv6 8))))
(assert (not (= x50 x52)))
(assert (not (= (_ bv6 8) x52)))
(assert (not (= x33 (_ bv2 8))))
(assert (not (= x33 (_ bv5 8))))
(assert (not (= x33 x43)))
(assert (not (= x33 x44)))
(assert (not (= x33 (_ bv8 8))))
(assert (not (= x33 (_ bv3 8))))
(assert (not (= x33 x54)))
(assert (not (= x33 x55)))
(assert (not (= (_ bv2 8) (_ bv5 8))))
(assert (not (= (_ bv2 8) x43)))
(assert (not (= (_ bv2 8) x44)))
(assert (not (= (_ bv2 8) (_ bv8 8))))
(assert (not (= (_ bv2 8) (_ bv3 8))))
(assert (not (= (_ bv2 8) x54)))
(assert (not (= (_ bv2 8) x55)))
(assert (not (= (_ bv5 8) x43)))
(assert (not (= (_ bv5 8) x44)))
(assert (not (= (_ bv5 8) (_ bv8 8))))
(assert (not (= (_ bv5 8) (_ bv3 8))))
(assert (not (= (_ bv5 8) x54)))
(assert (not (= (_ bv5 8) x55)))
(assert (not (= x43 x44)))
(assert (not (= x43 (_ bv8 8))))
(assert (not (= x43 (_ bv3 8))))
(assert (not (= x43 x54)))
(assert (not (= x43 x55)))
(assert (not (= x44 (_ bv8 8))))
(assert (not (= x44 (_ bv3 8))))
(assert (not (= x44 x54)))
(assert (not (= x44 x55)))
(assert (not (= (_ bv8 8) (_ bv3 8))))
(assert (not (= (_ bv8 8) x54)))
(assert (not (= (_ bv8 8) x55)))
(assert (not (= (_ bv3 8) x54)))
(assert (not (= (_ bv3 8) x55)))
(assert (not (= x54 x55)))
(assert (not (= x36 (_ bv9 8))))
(assert (not (= x36 x38)))
(assert (not (= x36 (_ bv6 8))))
(assert (not (= x36 x47)))
(assert (not (= x36 (_ bv5 8))))
(assert (not (= x36 x56)))
(assert (not (= x36 (_ bv4 8))))
(assert (not (= x36 x58)))
(assert (not (= (_ bv9 8) x38)))
(assert (not (= (_ bv9 8) (_ bv6 8))))
(assert (not (= (_ bv9 8) x47)))
(assert (not (= (_ bv9 8) (_ bv5 8))))
(assert (not (= (_ bv9 8) x56)))
(assert (not (= (_ bv9 8) (_ bv4 8))))
(assert (not (= (_ bv9 8) x58)))
(assert (not (= x38 (_ bv6 8))))
(assert (not (= x38 x47)))
(assert (not (= x38 (_ bv5 8))))
(assert (not (= x38 x56)))
(assert (not (= x38 (_ bv4 8))))
(assert (not (= x38 x58)))
(assert (not (= (_ bv6 8) x47)))
(assert (not (= (_ bv6 8) (_ bv5 8))))
(assert (not (= (_ bv6 8) x56)))
(assert (not (= (_ bv6 8) (_ bv4 8))))
(assert (not (= (_ bv6 8) x58)))
(assert (not (= x47 (_ bv5 8))))
(assert (not (= x47 x56)))
(assert (not (= x47 (_ bv4 8))))
(assert (not (= x47 x58)))
(assert (not (= (_ bv5 8) x56)))
(assert (not (= (_ bv5 8) (_ bv4 8))))
(assert (not (= (_ bv5 8) x58)))
(assert (not (= x56 (_ bv4 8))))
(assert (not (= x56 x58)))
(assert (not (= (_ bv4 8) x58)))
(assert (not (= x60 (_ bv2 8))))
(assert (not (= x60 (_ bv5 8))))
(assert (not (= x60 (_ bv7 8))))
(assert (not (= x60 x71)))
(assert (not (= x60 (_ bv3 8))))
(assert (not (= x60 x80)))
(assert (not (= x60 (_ bv1 8))))
(assert (not (= x60 x82)))
(assert (not (= (_ bv2 8) (_ bv5 8))))
(assert (not (= (_ bv2 8) (_ bv7 8))))
(assert (not (= (_ bv2 8) x71)))
(assert (not (= (_ bv2 8) (_ bv3 8))))
(assert (not (= (_ bv2 8) x80)))
(assert (not (= (_ bv2 8) (_ bv1 8))))
(assert (not (= (_ bv2 8) x82)))
(assert (not (= (_ bv5 8) (_ bv7 8))))
(assert (not (= (_ bv5 8) x71)))
(assert (not (= (_ bv5 8) (_ bv3 8))))
(assert (not (= (_ bv5 8) x80)))
(assert (not (= (_ bv5 8) (_ bv1 8))))
(assert (not (= (_ bv5 8) x82)))
(assert (not (= (_ bv7 8) x71)))
(assert (not (= (_ bv7 8) (_ bv3 8))))
(assert (not (= (_ bv7 8) x80)))
(assert (not (= (_ bv7 8) (_ bv1 8))))
(assert (not (= (_ bv7 8) x82)))
(assert (not (= x71 (_ bv3 8))))
(assert (not (= x71 x80)))
(assert (not (= x71 (_ bv1 8))))
(assert (not (= x71 x82)))
(assert (not (= (_ bv3 8) x80)))
(assert (not (= (_ bv3 8) (_ bv1 8))))
(assert (not (= (_ bv3 8) x82)))
(assert (not (= x80 (_ bv1 8))))
(assert (not (= x80 x82)))
(assert (not (= (_ bv1 8) x82)))
(assert (not (= x63 (_ bv6 8))))
(assert (not (= x63 (_ bv4 8))))
(assert (not (= x63 x73)))
(assert (not (= x63 (_ bv9 8))))
(assert (not (= x63 x75)))
(assert (not (= x63 (_ bv8 8))))
(assert (not (= x63 x84)))
(assert (not (= x63 x85)))
(assert (not (= (_ bv6 8) (_ bv4 8))))
(assert (not (= (_ bv6 8) x73)))
(assert (not (= (_ bv6 8) (_ bv9 8))))
(assert (not (= (_ bv6 8) x75)))
(assert (not (= (_ bv6 8) (_ bv8 8))))
(assert (not (= (_ bv6 8) x84)))
(assert (not (= (_ bv6 8) x85)))
(assert (not (= (_ bv4 8) x73)))
(assert (not (= (_ bv4 8) (_ bv9 8))))
(assert (not (= (_ bv4 8) x75)))
(assert (not (= (_ bv4 8) (_ bv8 8))))
(assert (not (= (_ bv4 8) x84)))
(assert (not (= (_ bv4 8) x85)))
(assert (not (= x73 (_ bv9 8))))
(assert (not (= x73 x75)))
(assert (not (= x73 (_ bv8 8))))
(assert (not (= x73 x84)))
(assert (not (= x73 x85)))
(assert (not (= (_ bv9 8) x75)))
(assert (not (= (_ bv9 8) (_ bv8 8))))
(assert (not (= (_ bv9 8) x84)))
(assert (not (= (_ bv9 8) x85)))
(assert (not (= x75 (_ bv8 8))))
(assert (not (= x75 x84)))
(assert (not (= x75 x85)))
(assert (not (= (_ bv8 8) x84)))
(assert (not (= (_ bv8 8) x85)))
(assert (not (= x84 x85)))
(assert (not (= (_ bv1 8) x67)))
(assert (not (= (_ bv1 8) x68)))
(assert (not (= (_ bv1 8) (_ bv2 8))))
(assert (not (= (_ bv1 8) x77)))
(assert (not (= (_ bv1 8) x78)))
(assert (not (= (_ bv1 8) (_ bv7 8))))
(assert (not (= (_ bv1 8) x87)))
(assert (not (= (_ bv1 8) (_ bv4 8))))
(assert (not (= x67 x68)))
(assert (not (= x67 (_ bv2 8))))
(assert (not (= x67 x77)))
(assert (not (= x67 x78)))
(assert (not (= x67 (_ bv7 8))))
(assert (not (= x67 x87)))
(assert (not (= x67 (_ bv4 8))))
(assert (not (= x68 (_ bv2 8))))
(assert (not (= x68 x77)))
(assert (not (= x68 x78)))
(assert (not (= x68 (_ bv7 8))))
(assert (not (= x68 x87)))
(assert (not (= x68 (_ bv4 8))))
(assert (not (= (_ bv2 8) x77)))
(assert (not (= (_ bv2 8) x78)))
(assert (not (= (_ bv2 8) (_ bv7 8))))
(assert (not (= (_ bv2 8) x87)))
(assert (not (= (_ bv2 8) (_ bv4 8))))
(assert (not (= x77 x78)))
(assert (not (= x77 (_ bv7 8))))
(assert (not (= x77 x87)))
(assert (not (= x77 (_ bv4 8))))
(assert (not (= x78 (_ bv7 8))))
(assert (not (= x78 x87)))
(assert (not (= x78 (_ bv4 8))))
(assert (not (= (_ bv7 8) x87)))
(assert (not (= (_ bv7 8) (_ bv4 8))))
(assert (not (= x87 (_ bv4 8))))
(check-sat)
(exit)
